
Log started (V11.0.0) Sun May 18 19:05:21 2008

Tried aggregator 1 time.
Reduced MIP has 540 rows, 20001 columns, and 40040 nonzeros.
Presolve time =    0.14 sec.
Clique table members: 500.
MIP emphasis: balance optimality and feasibility.
MIP search method: dynamic search.
Parallel mode: none, using 1 thread.
Root relaxation solution time =    2.20 sec.

        Nodes                                         Cuts/
   Node  Left     Objective  IInf  Best Integer     Best Node    ItCnt     Gap

*     0+    0                        54882.0000     1251.8500      929   97.72%
*     0+    0                         1304.0000     1251.8500      929    4.00%
      0     0     1252.7782    78     1304.0000      Fract: 6      998    3.93%
      0     0     1261.3781    96     1304.0000      Cuts: 13     2021    3.27%
      0     0     1261.9951    91     1304.0000     Covers: 3     2219    3.22%
      0     0     1261.9951    92     1304.0000     Covers: 1     2222    3.22%
      0     0     1261.9951    97     1304.0000     Covers: 2     2226    3.22%
*     0+    0                         1301.0000     1261.9951     2226    3.00%
*     0+    0                         1300.0000     1261.9951     2226    2.92%
      0     2     1261.9951    97     1300.0000     1261.9951     2226    2.92%
    100   100     1262.0000    89     1300.0000     1261.9953     5734    2.92%
    200   186     1263.0000    77     1300.0000     1261.9953    17325    2.92%
    300   269     1265.0000    81     1300.0000     1261.9953    19323    2.92%
    400   368     1265.0000    74     1300.0000     1261.9953    21586    2.92%
    500   467     1265.0000    78     1300.0000     1261.9953    25417    2.92%

Cover cuts applied:  41
Mixed integer rounding cuts applied:  8
Gomory fractional cuts applied:  4

Solution pool: 4 solutions saved.

MIP - Integer optimal solution:  Objective = 1.3000000000e+003
Solution time =   84.23 sec.  Iterations = 28581  Nodes = 508 (474)


Incumbent solution
Variable Name           Solution Value
Cmax                       1300.000000
X_1_19                        1.000000
X_2_40                        1.000000
X_3_22                        1.000000
X_4_5                         1.000000
X_5_32                        1.000000
X_6_10                        1.000000
X_7_39                        1.000000
X_8_16                        1.000000
X_9_2                         1.000000
X_10_37                       1.000000
X_11_37                       1.000000
X_12_1                        1.000000
X_13_32                       1.000000
X_14_15                       1.000000
X_15_14                       1.000000
X_16_2                        1.000000
X_17_33                       1.000000
X_18_24                       1.000000
X_19_22                       1.000000
X_20_28                       1.000000
X_21_2                        1.000000
X_22_16                       1.000000
X_23_18                       1.000000
X_24_33                       1.000000
X_25_13                       1.000000
X_26_9                        1.000000
X_27_28                       1.000000
X_28_12                       1.000000
X_29_25                       1.000000
X_30_37                       1.000000
X_31_18                       1.000000
X_32_31                       1.000000
X_33_21                       1.000000
X_34_5                        1.000000
X_35_29                       1.000000
X_36_34                       1.000000
X_37_3                        1.000000
X_38_20                       1.000000
X_39_25                       1.000000
X_40_14                       1.000000
X_41_19                       1.000000
X_42_26                       1.000000
X_43_20                       1.000000
X_44_7                        1.000000
X_45_6                        1.000000
X_46_13                       1.000000
X_47_4                        1.000000
X_48_14                       1.000000
X_49_19                       1.000000
X_50_31                       1.000000
X_51_17                       1.000000
X_52_3                        1.000000
X_53_28                       1.000000
X_54_3                        1.000000
X_55_3                        1.000000
X_56_20                       1.000000
X_57_25                       1.000000
X_58_1                        1.000000
X_59_25                       1.000000
X_60_4                        1.000000
X_61_13                       1.000000
X_62_40                       1.000000
X_63_23                       1.000000
X_64_19                       1.000000
X_65_33                       1.000000
X_66_33                       1.000000
X_67_27                       1.000000
X_68_4                        1.000000
X_69_23                       1.000000
X_70_33                       1.000000
X_71_1                        1.000000
X_72_6                        1.000000
X_73_39                       1.000000
X_74_12                       1.000000
X_75_23                       1.000000
X_76_3                        1.000000
X_77_13                       1.000000
X_78_15                       1.000000
X_79_24                       1.000000
X_80_29                       1.000000
X_81_7                        1.000000
X_82_17                       1.000000
X_83_18                       1.000000
X_84_24                       1.000000
X_85_17                       1.000000
X_86_1                        1.000000
X_87_15                       1.000000
X_88_29                       1.000000
X_89_11                       1.000000
X_90_27                       1.000000
X_91_40                       1.000000
X_92_26                       1.000000
X_93_13                       1.000000
X_94_22                       1.000000
X_95_13                       1.000000
X_96_12                       1.000000
X_97_14                       1.000000
X_98_35                       1.000000
X_99_16                       1.000000
X_100_23                      1.000000
X_101_40                      1.000000
X_102_6                       1.000000
X_103_24                      1.000000
X_104_13                      1.000000
X_105_11                      1.000000
X_106_39                      1.000000
X_107_1                       1.000000
X_108_27                      1.000000
X_109_36                      1.000000
X_110_14                      1.000000
X_111_6                       1.000000
X_112_20                      1.000000
X_113_24                      1.000000
X_114_22                      1.000000
X_115_3                       1.000000
X_116_27                      1.000000
X_117_20                      1.000000
X_118_39                      1.000000
X_119_27                      1.000000
X_120_24                      1.000000
X_121_30                      1.000000
X_122_8                       1.000000
X_123_10                      1.000000
X_124_3                       1.000000
X_125_5                       1.000000
X_126_8                       1.000000
X_127_27                      1.000000
X_128_2                       1.000000
X_129_30                      1.000000
X_130_38                      1.000000
X_131_28                      1.000000
X_132_18                      1.000000
X_133_31                      1.000000
X_134_34                      1.000000
X_135_31                      1.000000
X_136_33                      1.000000
X_137_36                      1.000000
X_138_34                      1.000000
X_139_26                      1.000000
X_140_26                      1.000000
X_141_8                       1.000000
X_142_20                      1.000000
X_143_20                      1.000000
X_144_31                      1.000000
X_145_19                      1.000000
X_146_23                      1.000000
X_147_7                       1.000000
X_148_32                      1.000000
X_149_7                       1.000000
X_150_16                      1.000000
X_151_17                      1.000000
X_152_21                      1.000000
X_153_31                      1.000000
X_154_27                      1.000000
X_155_30                      1.000000
X_156_1                       1.000000
X_157_30                      1.000000
X_158_18                      1.000000
X_159_25                      1.000000
X_160_18                      1.000000
X_161_8                       1.000000
X_162_31                      1.000000
X_163_37                      1.000000
X_164_12                      1.000000
X_165_14                      1.000000
X_166_7                       1.000000
X_167_10                      1.000000
X_168_8                       1.000000
X_169_16                      1.000000
X_170_30                      1.000000
X_171_7                       1.000000
X_172_21                      1.000000
X_173_35                      1.000000
X_174_26                      1.000000
X_175_40                      1.000000
X_176_23                      1.000000
X_177_35                      1.000000
X_178_10                      1.000000
X_179_30                      1.000000
X_180_7                       1.000000
X_181_11                      1.000000
X_182_10                      1.000000
X_183_5                       1.000000
X_184_29                      1.000000
X_185_12                      1.000000
X_186_15                      1.000000
X_187_18                      1.000000
X_188_32                      1.000000
X_189_38                      1.000000
X_190_20                      1.000000
X_191_1                       1.000000
X_192_22                      1.000000
X_193_25                      1.000000
X_194_22                      1.000000
X_195_38                      1.000000
X_196_29                      1.000000
X_197_8                       1.000000
X_198_1                       1.000000
X_199_39                      1.000000
X_200_15                      1.000000
X_201_9                       1.000000
X_202_25                      1.000000
X_203_35                      1.000000
X_204_4                       1.000000
X_205_3                       1.000000
X_206_26                      1.000000
X_207_17                      1.000000
X_208_16                      1.000000
X_209_40                      1.000000
X_210_34                      1.000000
X_211_10                      1.000000
X_212_4                       1.000000
X_213_30                      1.000000
X_214_16                      1.000000
X_215_39                      1.000000
X_216_28                      1.000000
X_217_35                      1.000000
X_218_40                      1.000000
X_219_1                       1.000000
X_220_26                      1.000000
X_221_6                       1.000000
X_222_14                      1.000000
X_223_6                       1.000000
X_224_20                      1.000000
X_225_20                      1.000000
X_226_19                      1.000000
X_227_38                      1.000000
X_228_23                      1.000000
X_229_25                      1.000000
X_230_15                      1.000000
X_231_8                       1.000000
X_232_9                       1.000000
X_233_17                      1.000000
X_234_32                      1.000000
X_235_40                      1.000000
X_236_5                       1.000000
X_237_25                      1.000000
X_238_9                       1.000000
X_239_34                      1.000000
X_240_28                      1.000000
X_241_12                      1.000000
X_242_6                       1.000000
X_243_12                      1.000000
X_244_25                      1.000000
X_245_7                       1.000000
X_246_35                      1.000000
X_247_35                      1.000000
X_248_39                      1.000000
X_249_8                       1.000000
X_250_22                      1.000000
X_251_29                      1.000000
X_252_40                      1.000000
X_253_24                      1.000000
X_254_22                      1.000000
X_255_10                      1.000000
X_256_17                      1.000000
X_257_31                      1.000000
X_258_5                       1.000000
X_259_1                       1.000000
X_260_6                       1.000000
X_261_26                      1.000000
X_262_21                      1.000000
X_263_4                       1.000000
X_264_34                      1.000000
X_265_8                       1.000000
X_266_33                      1.000000
X_267_37                      1.000000
X_268_35                      1.000000
X_269_1                       1.000000
X_270_38                      1.000000
X_271_14                      1.000000
X_272_12                      1.000000
X_273_33                      1.000000
X_274_39                      1.000000
X_275_6                       1.000000
X_276_35                      1.000000
X_277_26                      1.000000
X_278_14                      1.000000
X_279_37                      1.000000
X_280_15                      1.000000
X_281_1                       1.000000
X_282_27                      1.000000
X_283_9                       1.000000
X_284_33                      1.000000
X_285_17                      1.000000
X_286_35                      1.000000
X_287_36                      1.000000
X_288_21                      1.000000
X_289_37                      1.000000
X_290_16                      1.000000
X_291_18                      1.000000
X_292_35                      1.000000
X_293_23                      1.000000
X_294_34                      1.000000
X_295_14                      1.000000
X_296_18                      1.000000
X_297_18                      1.000000
X_298_2                       1.000000
X_299_27                      1.000000
X_300_35                      1.000000
X_301_3                       1.000000
X_302_34                      1.000000
X_303_13                      1.000000
X_304_4                       1.000000
X_305_5                       1.000000
X_306_9                       1.000000
X_307_1                       1.000000
X_308_8                       1.000000
X_309_33                      1.000000
X_310_26                      1.000000
X_311_32                      1.000000
X_312_19                      1.000000
X_313_36                      1.000000
X_314_36                      1.000000
X_315_38                      1.000000
X_316_21                      1.000000
X_317_36                      1.000000
X_318_5                       1.000000
X_319_19                      1.000000
X_320_28                      1.000000
X_321_16                      1.000000
X_322_38                      1.000000
X_323_32                      1.000000
X_324_13                      1.000000
X_325_10                      1.000000
X_326_31                      1.000000
X_327_28                      1.000000
X_328_19                      1.000000
X_329_11                      1.000000
X_330_29                      1.000000
X_331_15                      1.000000
X_332_8                       1.000000
X_333_2                       1.000000
X_334_21                      1.000000
X_335_9                       1.000000
X_336_30                      1.000000
X_337_19                      1.000000
X_338_2                       1.000000
X_339_11                      1.000000
X_340_18                      1.000000
X_341_15                      1.000000
X_342_24                      1.000000
X_343_23                      1.000000
X_344_7                       1.000000
X_345_21                      1.000000
X_346_21                      1.000000
X_347_24                      1.000000
X_348_7                       1.000000
X_349_22                      1.000000
X_350_2                       1.000000
X_351_36                      1.000000
X_352_18                      1.000000
X_353_40                      1.000000
X_354_36                      1.000000
X_355_3                       1.000000
X_356_37                      1.000000
X_357_27                      1.000000
X_358_6                       1.000000
X_359_10                      1.000000
X_360_29                      1.000000
X_361_40                      1.000000
X_362_21                      1.000000
X_363_13                      1.000000
X_364_4                       1.000000
X_365_34                      1.000000
X_366_40                      1.000000
X_367_22                      1.000000
X_368_34                      1.000000
X_369_29                      1.000000
X_370_5                       1.000000
X_371_13                      1.000000
X_372_32                      1.000000
X_373_12                      1.000000
X_374_31                      1.000000
X_375_17                      1.000000
X_376_10                      1.000000
X_377_29                      1.000000
X_378_30                      1.000000
X_379_26                      1.000000
X_380_15                      1.000000
X_381_37                      1.000000
X_382_11                      1.000000
X_383_15                      1.000000
X_384_36                      1.000000
X_385_25                      1.000000
X_386_2                       1.000000
X_387_10                      1.000000
X_388_29                      1.000000
X_389_8                       1.000000
X_390_14                      1.000000
X_391_18                      1.000000
X_392_22                      1.000000
X_393_21                      1.000000
X_394_9                       1.000000
X_395_9                       1.000000
X_396_17                      1.000000
X_397_5                       1.000000
X_398_29                      1.000000
X_399_17                      1.000000
X_400_17                      1.000000
X_401_32                      1.000000
X_402_15                      1.000000
X_403_26                      1.000000
X_404_4                       1.000000
X_405_14                      1.000000
X_406_2                       1.000000
X_407_30                      1.000000
X_408_38                      1.000000
X_409_28                      1.000000
X_410_27                      1.000000
X_411_6                       1.000000
X_412_2                       1.000000
X_413_37                      1.000000
X_414_12                      1.000000
X_415_13                      1.000000
X_416_22                      1.000000
X_417_38                      1.000000
X_418_21                      1.000000
X_419_24                      1.000000
X_420_35                      1.000000
X_421_30                      1.000000
X_422_32                      1.000000
X_423_12                      1.000000
X_424_5                       1.000000
X_425_7                       1.000000
X_426_9                       1.000000
X_427_28                      1.000000
X_428_11                      1.000000
X_429_28                      1.000000
X_430_11                      1.000000
X_431_28                      1.000000
X_432_30                      1.000000
X_433_12                      1.000000
X_434_10                      1.000000
X_435_33                      1.000000
X_436_32                      1.000000
X_437_2                       1.000000
X_438_22                      1.000000
X_439_31                      1.000000
X_440_25                      1.000000
X_441_27                      1.000000
X_442_38                      1.000000
X_443_37                      1.000000
X_444_9                       1.000000
X_445_24                      1.000000
X_446_36                      1.000000
X_447_23                      1.000000
X_448_33                      1.000000
X_449_2                       1.000000
X_450_37                      1.000000
X_451_11                      1.000000
X_452_12                      1.000000
X_453_25                      1.000000
X_454_24                      1.000000
X_455_4                       1.000000
X_456_23                      1.000000
X_457_39                      1.000000
X_458_38                      1.000000
X_459_24                      1.000000
X_460_4                       1.000000
X_461_16                      1.000000
X_462_11                      1.000000
X_463_38                      1.000000
X_464_36                      1.000000
X_465_3                       1.000000
X_466_5                       1.000000
X_467_6                       1.000000
X_468_11                      1.000000
X_469_20                      1.000000
X_470_3                       1.000000
X_471_32                      1.000000
X_472_16                      1.000000
X_473_39                      1.000000
X_474_16                      1.000000
X_475_36                      1.000000
X_476_7                       1.000000
X_477_30                      1.000000
X_478_34                      1.000000
X_479_33                      1.000000
X_480_39                      1.000000
X_481_23                      1.000000
X_482_29                      1.000000
X_483_5                       1.000000
X_484_14                      1.000000
X_485_19                      1.000000
X_486_9                       1.000000
X_487_20                      1.000000
X_488_4                       1.000000
X_489_17                      1.000000
X_490_40                      1.000000
X_491_19                      1.000000
X_492_39                      1.000000
X_493_34                      1.000000
X_494_39                      1.000000
X_495_26                      1.000000
X_496_38                      1.000000
X_497_11                      1.000000
X_498_16                      1.000000
X_499_31                      1.000000
X_500_32                      1.000000
All other variables in the range 1-20001 are 0.
